Solver command line: []

Read LP format model from file C:\Users\wlhlm\AppData\Local\Temp\tmpct8jhd5p.pyomo.lp
Reading time = 38.86 seconds
objective: 1002984 rows, 875999 columns, 78984486 nonzeros
Set parameter MIPGap to value 0.03
Gurobi Optimizer version 12.0.1 build v12.0.1rc0 (win64 - Windows 11.0 (26100.2))

CPU model: Intel(R) Core(TM) Ultra 7 258V, instruction set [SSE2|AVX|AVX2]
Thread count: 8 physical cores, 8 logical processors, using up to 8 threads

Non-default parameters:
MIPGap  0.03

Optimize a model with 1002984 rows, 875999 columns and 78984486 nonzeros
Model fingerprint: 0xbbc078cb
Model has 8759 quadratic constraints
Variable types: 753360 continuous, 122639 integer (105120 binary)
Coefficient statistics:
  Matrix range     [8e-03, 2e+02]
  QMatrix range    [1e+00, 1e+00]
  Objective range  [1e-02, 3e+02]
  Bounds range     [1e+00, 3e+00]
  RHS range        [8e-05, 1e+04]
Presolve removed 157680 rows and 122640 columns (presolve time = 11s)...
Presolve removed 617548 rows and 494907 columns (presolve time = 15s)...
Presolve removed 678798 rows and 547469 columns (presolve time = 23s)...
Presolve removed 697019 rows and 554612 columns (presolve time = 29s)...
Presolve removed 697019 rows and 557388 columns (presolve time = 31s)...
Presolve removed 702923 rows and 560516 columns (presolve time = 35s)...
Presolve removed 702923 rows and 560516 columns (presolve time = 43s)...
Presolve removed 702923 rows and 560516 columns (presolve time = 46s)...
Presolve removed 711682 rows and 560516 columns (presolve time = 54s)...
Presolve removed 711682 rows and 560516 columns (presolve time = 58s)...
Presolve removed 711682 rows and 560517 columns (presolve time = 60s)...
Presolve removed 711682 rows and 560517 columns (presolve time = 67s)...
Presolve removed 798456 rows and 655935 columns
Presolve time: 68.15s
Presolved: 204528 rows, 220064 columns, 635081 nonzeros
Variable types: 148351 continuous, 71713 integer (62954 binary)
Performing another presolve...
Presolve removed 61319 rows and 61320 columns (presolve time = 6s)...
Presolve removed 61319 rows and 61320 columns
Presolve time: 6.28s
Deterministic concurrent LP optimizer: primal and dual simplex
Showing primal log only...


Root simplex log...

Iteration    Objective       Primal Inf.    Dual Inf.      Time
       0    4.3306247e+07   3.656409e+07   4.541248e+13     76s
Concurrent spin time: 0.00s

Solved with dual simplex

Root simplex log...

Iteration    Objective       Primal Inf.    Dual Inf.      Time
   64153    2.8768673e+07   0.000000e+00   0.000000e+00     79s
Extra simplex iterations after uncrush: 1

Root relaxation: objective 2.876867e+07, 64153 iterations, 3.14 seconds (4.20 work units)
Total elapsed time = 79.13s (DegenMoves)
Total elapsed time = 80.19s (DegenMoves)

    Nodes    |    Current Node    |     Objective Bounds      |     Work
 Expl Unexpl |  Obj  Depth IntInf | Incumbent    BestBd   Gap | It/Node Time

     0     0 2.8769e+07    0  628          - 2.8769e+07      -     -   83s
H    0     0                    2.895866e+07 2.8769e+07  0.66%     -   83s

Explored 1 nodes (73895 simplex iterations) in 84.76 seconds (65.19 work units)
Thread count was 8 (of 8 available processors)

Solution count 1: 2.89587e+07 

Optimal solution found (tolerance 3.00e-02)
Best objective 2.895866342090e+07, best bound 2.876867294932e+07, gap 0.6561%

